Regular 12 x 12 x 12 mesh centered at Gamma 
0
Gamma
12 12 12
