GaAs
5.608
0.5 0.5 0.0
0.0 0.5 0.5
0.5 0.0 0.5
Ga As
1 1
direct
0.0 0.0 0.0
0.25 0.25 0.25
